RT is False
Default write of storage_offers_DA.csv just to have a file (but constraint should be inactive)
Reading model...
...model read.
creating competitive generators file...
...competitive generators recorded.
Loading data...
.. day-ahead data with real-time VRE data read.
Compiling instance...
...instance created.
Creating Offer Mitigation (model will solve as dispatch if TRUE)...
NOTE: storage offers will not be mitigated
...storage offer mitigation file created
Converting model to MPEC...
...converted
NOTE: initial MIP solve with only storage competitive to get feasible solution
Solving...

Welcome to IBM(R) ILOG(R) CPLEX(R) Interactive Optimizer 12.9.0.0
  with Simplex, Mixed Integer & Barrier Optimizers
5725-A06 5725-A29 5724-Y48 5724-Y49 5724-Y54 5724-Y55 5655-Y21
Copyright IBM Corp. 1988, 2019.  All Rights Reserved.

Type 'help' for a list of available commands.
Type 'help' followed by a command name for more
information on commands.

CPLEX> Logfile 'cplex.log' closed.
Logfile 'C:\Users\llavin\Desktop\test826\logs\tmpbdv2jydi.cplex.log' open.
CPLEX> New value for parallel optimization mode: -1
CPLEX> New value for emphasis for MIP optimization: 1
CPLEX> New value for mixed integer optimality gap tolerance: 0.01
CPLEX> New value for integrality tolerance: 1e-12
CPLEX> New value for deterministic time limit in ticks: 75000
CPLEX> Problem 'C:\Users\llavin\Desktop\test826\logs\tmpcb15to_c.pyomo.lp' read.
Read time = 0.22 sec. (13.92 ticks)
CPLEX> Problem name         : C:\Users\llavin\Desktop\test826\logs\tmpcb15to_c.pyomo.lp
Objective sense      : Maximize
Variables            :   53809  [Nneg: 1,  Box: 22004,  Free: 4464,
                                 Binary: 27340]
Objective nonzeros   :    9029
Linear constraints   :  123253  [Less: 41346,  Greater: 59096,  Equal: 22811]
  Nonzeros           :  293217
  RHS nonzeros       :   67491

Variables            : Min LB: -5000.000        Max UB: 1000000.       
Objective nonzeros   : Min   : 0.3583333        Max   : 2500.000       
Linear constraints   :
  Nonzeros           : Min   : 0.3583333        Max   : 1000000.       
  RHS nonzeros       : Min   : 0.3583333        Max   : 1000000.       
CPLEX> CPXPARAM_Parallel                                -1
CPXPARAM_Emphasis_MIP                            1
CPXPARAM_DetTimeLimit                            75000
CPXPARAM_MIP_Tolerances_MIPGap                   0.01
CPXPARAM_MIP_Tolerances_Integrality              9.9999999999999998e-13
Tried aggregator 4 times.
MIP Presolve eliminated 88665 rows and 18968 columns.
MIP Presolve added 3379 rows and 0 columns.
MIP Presolve modified 24847 coefficients.
Aggregator did 12987 substitutions.
Reduced MIP has 24980 rows, 21298 columns, and 71874 nonzeros.
Reduced MIP has 8418 binaries, 0 generals, 0 SOSs, and 0 indicators.
Presolve time = 0.33 sec. (192.39 ticks)
Probing fixed 382 vars, tightened 3951 bounds.
Probing time = 0.08 sec. (18.98 ticks)
Tried aggregator 2 times.
MIP Presolve eliminated 862 rows and 765 columns.
MIP Presolve modified 3036 coefficients.
Aggregator did 33 substitutions.
Reduced MIP has 24085 rows, 20500 columns, and 69281 nonzeros.
Reduced MIP has 8036 binaries, 0 generals, 0 SOSs, and 0 indicators.
Presolve time = 0.13 sec. (89.62 ticks)
Probing fixed 0 vars, tightened 261 bounds.
Probing time = 0.16 sec. (23.08 ticks)
Clique table members: 44739.
MIP emphasis: integer feasibility.
MIP search method: dynamic search.
Parallel mode: opportunistic, using up to 32 threads.
Root relaxation solution time = 0.44 sec. (640.94 ticks)

        Nodes                                         Cuts/
   Node  Left     Objective  IInf  Best Integer    Best Bound    ItCnt     Gap

      0     0     3566.3775   142                   3566.3775     5345         
*     0+    0                         2192.4554     3566.3775            62.67%
*     0     3      integral     0     3560.1861     3565.1925     5353    0.14%
      0     3     3560.1861     0     3560.1861     3565.1925     5353    0.14%
Elapsed time = 3.45 sec. (1833.47 ticks, tree = 0.02 MB, solutions = 3)

Root node processing (before b&c):
  Real time             =    2.59 sec. (1809.89 ticks)
Parallel b&c, 32 threads:
  Real time             =    1.00 sec. (168.26 ticks)
  Sync time (average)   =    0.19 sec.
  Wait time (average)   =    0.00 sec.
                          ------------
Total (root+branch&cut) =    3.59 sec. (1978.15 ticks)

Solution pool: 3 solutions saved.

MIP - Integer optimal, tolerance (0.01/1e-06):  Objective =  3.5601861269e+03
Current MIP best bound =  3.5651925267e+03 (gap = 5.0064, 0.14%)
Solution time =    3.61 sec.  Iterations = 5380  Nodes = 7 (4)
Deterministic time = 1978.31 ticks  (548.16 ticks/sec)

CPLEX> Incumbent solution written to file 'C:\Users\llavin\Desktop\test826\logs\tmpu_vdxyaz.cplex.sol'.
CPLEX> NOTE: no warmstart specified for MIP iteration, default behavior is true
NOTE: resolving with all competitive generators using storage-only solution to warmstart
Solving...

Welcome to IBM(R) ILOG(R) CPLEX(R) Interactive Optimizer 12.9.0.0
  with Simplex, Mixed Integer & Barrier Optimizers
5725-A06 5725-A29 5724-Y48 5724-Y49 5724-Y54 5724-Y55 5655-Y21
Copyright IBM Corp. 1988, 2019.  All Rights Reserved.

Type 'help' for a list of available commands.
Type 'help' followed by a command name for more
information on commands.

CPLEX> Logfile 'cplex.log' closed.
Logfile 'C:\Users\llavin\Desktop\test826\logs\tmps4583qyi.cplex.log' open.
CPLEX> New value for parallel optimization mode: -1
CPLEX> New value for emphasis for MIP optimization: 1
CPLEX> New value for mixed integer optimality gap tolerance: 0.01
CPLEX> New value for integrality tolerance: 1e-12
CPLEX> New value for deterministic time limit in ticks: 75000
CPLEX> Problem 'C:\Users\llavin\Desktop\test826\logs\tmpl21kpv7i.pyomo.lp' read.
Read time = 0.27 sec. (13.94 ticks)
CPLEX> MIP start file 'C:\Users\llavin\Desktop\test826\logs\tmpsmuc8fpc.cplex.mst' read.
CPLEX> Problem name         : C:\Users\llavin\Desktop\test826\logs\tmpl21kpv7i.pyomo.lp
Objective sense      : Maximize
Variables            :   54529  [Nneg: 1,  Box: 22724,  Free: 4464,
                                 Binary: 27340]
Objective nonzeros   :    9749
Linear constraints   :  123253  [Less: 41346,  Greater: 59096,  Equal: 22811]
  Nonzeros           :  293217
  RHS nonzeros       :   67491

Variables            : Min LB: -5000.000        Max UB: 1000000.       
Objective nonzeros   : Min   : 0.3583333        Max   : 2500.000       
Linear constraints   :
  Nonzeros           : Min   : 0.3583333        Max   : 1000000.       
  RHS nonzeros       : Min   : 0.3583333        Max   : 1000000.       
CPLEX> CPXPARAM_Parallel                                -1
CPXPARAM_Emphasis_MIP                            1
CPXPARAM_DetTimeLimit                            75000
CPXPARAM_MIP_Tolerances_MIPGap                   0.01
CPXPARAM_MIP_Tolerances_Integrality              9.9999999999999998e-13
Warning:  No solution found from 1 MIP starts.
Retaining values of one MIP start for possible repair.
Tried aggregator 4 times.
MIP Presolve eliminated 88665 rows and 19688 columns.
MIP Presolve added 3379 rows and 0 columns.
MIP Presolve modified 24847 coefficients.
Aggregator did 12987 substitutions.
Reduced MIP has 24980 rows, 21298 columns, and 71874 nonzeros.
Reduced MIP has 8418 binaries, 0 generals, 0 SOSs, and 0 indicators.
Presolve time = 0.33 sec. (192.79 ticks)
Probing fixed 382 vars, tightened 3951 bounds.
Probing time = 0.08 sec. (18.98 ticks)
Tried aggregator 2 times.
MIP Presolve eliminated 862 rows and 765 columns.
MIP Presolve modified 3036 coefficients.
Aggregator did 33 substitutions.
Reduced MIP has 24085 rows, 20500 columns, and 69281 nonzeros.
Reduced MIP has 8036 binaries, 0 generals, 0 SOSs, and 0 indicators.
Presolve time = 0.13 sec. (89.62 ticks)
Probing fixed 0 vars, tightened 261 bounds.
Probing time = 0.16 sec. (23.08 ticks)
Clique table members: 44739.
MIP emphasis: integer feasibility.
MIP search method: dynamic search.
Parallel mode: opportunistic, using up to 32 threads.
Root relaxation solution time = 0.45 sec. (640.94 ticks)

        Nodes                                         Cuts/
   Node  Left     Objective  IInf  Best Integer    Best Bound    ItCnt     Gap

      0     0     3566.3775   142                   3566.3775     5345         
Repair heuristic found nothing.
*     0+    0                         3560.1861     3566.3775             0.17%

Root node processing (before b&c):
  Real time             =    2.84 sec. (1944.62 ticks)
Parallel b&c, 32 threads:
  Real time             =    0.00 sec. (0.00 ticks)
  Sync time (average)   =    0.00 sec.
  Wait time (average)   =    0.00 sec.
                          ------------
Total (root+branch&cut) =    2.84 sec. (1944.62 ticks)

Solution pool: 1 solution saved.

MIP - Integer optimal, tolerance (0.01/1e-06):  Objective =  3.5601861269e+03
Current MIP best bound =  3.5663775436e+03 (gap = 6.19142, 0.17%)
Solution time =    2.86 sec.  Iterations = 5345  Nodes = 0 (1)
Deterministic time = 1944.77 ticks  (680.23 ticks/sec)

CPLEX> Incumbent solution written to file 'C:\Users\llavin\Desktop\test826\logs\tmpsw5ulbco.cplex.sol'.
CPLEX> Exporting results... 
